








































































































30 57 53 28 7 21 33 59 
11 38 42 31 17 52 2 
12 32 61 29 18 50 1 
70 72 68 63 58 51 69 43 
45 73 36 19 62 5 48 47 
37 23 76 24 4 46 56 0 
55 26 3 71 65 25 64 34 
54 6 15 10 41 44 66 27 
13 67 74 22 35 9 8 16 75 
20 40 60 39 14 49 
